db/data/2629025774552555113791881664710811.z3.out
-------------------
2500.109350985
